&CONTROL
 prefix = "SO2",
 pseudo_dir = '../pseudo',
 outdir = "./SO2"
 /
 
 &SYSTEM
 ibrav = 1,
 A = 10,
 ecutwfc = 50,
 nat = 3,
 ntyp = 2,
 !input_dft = pz
 /
 
 &ELECTRONS
 conv_thr = 1e-6,
 /
 
ATOMIC_SPECIES
 O 16.008 O_ONCV_PBE-1.2.upf
 S 32.065 S_ONCV_PBE-1.2.upf
  
ATOMIC_POSITIONS {crystal}
S 0.5 0.5 0.5370268
O 0.5 0.6277617 0.4629732
O 0.5 0.3722383 0.4629732

 K_POINTS {AUTOMATIC}
 1 1 1 0 0 0
