&CONTROL
 prefix = "CH4",
 pseudo_dir = '../pseudo',
 outdir = "./CH4"
 /
 
 &SYSTEM
 ibrav = 1,
 A = 10,
 ecutwfc = 50,
 nat = 5,
 ntyp = 2,
 !input_dft = pz
 /
 
 &ELECTRONS
 conv_thr = 1e-6,
 /
 
ATOMIC_SPECIES
 H 1.004 H_ONCV_PBE-1.2.upf
 C 12.011 C_ONCV_PBE-1.2.upf
  
ATOMIC_POSITIONS {crystal}
C 0.5 0.5 0.5
H 0.5629118 0.5629118 0.5629118
H 0.43708820000000004 0.43708820000000004 0.5629118
H 0.5629118 0.43708820000000004 0.43708820000000004
H 0.43708820000000004 0.5629118 0.43708820000000004

 K_POINTS {AUTOMATIC}
 1 1 1 0 0 0
