&CONTROL
 prefix = "BCl3",
 pseudo_dir = '../pseudo',
 outdir = "./BCl3"
 /
 
 &SYSTEM
 ibrav = 1,
 A = 10,
 ecutwfc = 50,
 nat = 4,
 ntyp = 2,
 !input_dft = pz
 /
 
 &ELECTRONS
 conv_thr = 1e-6,
 /
 
ATOMIC_SPECIES
 B 10.811 B_ONCV_PBE-1.2.upf
 Cl 35.453 Cl_ONCV_PBE-1.2.upf
  
ATOMIC_POSITIONS {crystal}
B 0.5 0.5 0.5
Cl 0.5 0.6735352 0.5
Cl 0.6502859 0.41323239999999994 0.5
Cl 0.3497141 0.41323239999999994 0.5

 K_POINTS {AUTOMATIC}
 1 1 1 0 0 0
