&CONTROL
 prefix = "H2O",
 pseudo_dir = '../pseudo',
 outdir = "./H2O"
 /
 
 &SYSTEM
 ibrav = 1,
 A = 10,
 ecutwfc = 50,
 nat = 3,
 ntyp = 2,
 !input_dft = pz
 /
 
 &ELECTRONS
 conv_thr = 1e-6,
 /
 
ATOMIC_SPECIES
 H 1.004 H_ONCV_PBE-1.2.upf
 O 16.008 O_ONCV_PBE-1.2.upf
 
ATOMIC_POSITIONS {crystal}
O 0.5 0.5 0.5119262
H 0.5 0.5763239 0.45229530000000007
H 0.5 0.4236761 0.45229530000000007

 K_POINTS {AUTOMATIC}
 1 1 1 0 0 0
