&CONTROL
 prefix = "LiH",
 pseudo_dir = '../pseudo',
 outdir = "./LiH"
 /
 
 &SYSTEM
 ibrav = 1,
 A = 10,
 ecutwfc = 50,
 nat = 2,
 ntyp = 2,
 !input_dft = pz
 /
 
 &ELECTRONS
 conv_thr = 1e-6,
 /
 
ATOMIC_SPECIES
 H 1.004 H_ONCV_PBE-1.2.upf
 Li 6.941 Li_ONCV_PBE-1.2.upf
 
ATOMIC_POSITIONS {crystal}
Li 0.5 0.5 0.541
H 0.5 0.5 0.377

 K_POINTS {AUTOMATIC}
 1 1 1 0 0 0
