&CONTROL
 prefix = "C2H4",
 pseudo_dir = '../pseudo',
 outdir = "./C2H4"
 /
 
 &SYSTEM
 ibrav = 1,
 A = 10,
 ecutwfc = 50,
 nat = 6,
 ntyp = 2,
 !input_dft = pz
 /
 
 &ELECTRONS
 conv_thr = 1e-6,
 /
 
ATOMIC_SPECIES
 H 1.004 H_ONCV_PBE-1.2.upf
 C 12.011 C_ONCV_PBE-1.2.upf
  
ATOMIC_POSITIONS {crystal}
C 0.5 0.5 0.566748
C 0.5 0.5 0.43325199999999997
H 0.5 0.5922832 0.6237695
H 0.5 0.4077168 0.6237695
H 0.5 0.5922832 0.3762304999999999
H 0.5 0.4077168 0.3762304999999999

K_POINTS {AUTOMATIC}
 1 1 1 0 0 0
