&CONTROL
 prefix = "CO2",
 pseudo_dir = '../pseudo',
 outdir = "./CO2"
 /
 
 &SYSTEM
 ibrav = 1,
 A = 10,
 ecutwfc = 50,
 nat = 3,
 ntyp = 2,
 !input_dft = pz
 /
 
 &ELECTRONS
 conv_thr = 1e-6,
 /
 
ATOMIC_SPECIES
 O 16.008 O_ONCV_PBE-1.2.upf
 C 12.011 C_ONCV_PBE-1.2.upf
  
ATOMIC_POSITIONS {crystal}
C 0.5 0.5 0.5
O 0.5 0.5 0.6178658
O 0.5 0.5 0.3821342

 K_POINTS {AUTOMATIC}
 1 1 1 0 0 0
