&CONTROL
 prefix = "PH3",
 pseudo_dir = '../pseudo',
 outdir = "./PH3"
 /
 
 &SYSTEM
 ibrav = 1,
 A = 10,
 ecutwfc = 50,
 nat = 4,
 ntyp = 2,
 !input_dft = pz
 /
 
 &ELECTRONS
 conv_thr = 1e-6,
 /
 
ATOMIC_SPECIES
 H 1.004 H_ONCV_PBE-1.2.upf
 P 30.974 P_ONCV_PBE-1.2.upf
  
ATOMIC_POSITIONS {crystal}
P 0.5 0.5 0.5124619
H 0.5 0.6200647 0.4376905
H 0.6039791 0.43996769999999996 0.4376905
H 0.3960209 0.43996769999999996 0.4376905

 K_POINTS {AUTOMATIC}
 1 1 1 0 0 0
