&CONTROL
 prefix = "O2",
 pseudo_dir = '../pseudo',
 outdir = "./O2"
 /
 
 &SYSTEM
 ibrav = 1,
 A = 10,
 ecutwfc = 50,
 nat = 2,
 ntyp = 1,
 !input_dft = pz
 /
 
 &ELECTRONS
 conv_thr = 1e-6,
 /
 
ATOMIC_SPECIES
 O 16.008 O_ONCV_PBE-1.2.upf
  
ATOMIC_POSITIONS {crystal}
O 0.5 0.5 0.5622978
O 0.5 0.5 0.43770220000000004

 K_POINTS {AUTOMATIC}
 1 1 1 0 0 0
