&CONTROL
 prefix = "Li2",
 pseudo_dir = '../pseudo',
 outdir = "./Li2"
 /
 
 &SYSTEM
 ibrav = 1,
 A = 10,
 ecutwfc = 50,
 nat = 2,
 ntyp = 1,
 !input_dft = pz
 /
 
 &ELECTRONS
 conv_thr = 1e-6,
 /
 
ATOMIC_SPECIES
 Li 6.941 Li_ONCV_PBE-1.2.upf
 
ATOMIC_POSITIONS {crystal}
Li 0.5 0.5 0.638653
Li 0.5 0.5 0.361347

 K_POINTS {AUTOMATIC}
 1 1 1 0 0 0
